(set-logic ALL)
(declare-const k Int)
(declare-fun s () (_ BitVec k))
(declare-fun t () (_ BitVec k))
(assert (not (distinct (bvule s (bvshl (bvand t (_ bv1 k)) t)) (bvule s (bvmul t (bvshl t t))))))
(check-sat)
